\ LP format - for model browsing. Use MPS format to capture full model detail.
Minimize
  1.414213562373095 x[0,_1,_0] + x[0,_2,_0] + 1.414213562373095 x[0,_3,_0]
   + 2.23606797749979 x[0,_4,_0] + 2 x[0,_5,_0]
   + 2.23606797749979 x[0,_6,_0] + 1.414213562373095 x[1,_0,_0]
   + x[1,_2,_0] + 2 x[1,_3,_0] + x[1,_4,_0] + 1.414213562373095 x[1,_5,_0]
   + 2.23606797749979 x[1,_6,_0] + x[2,_0,_0] + x[2,_1,_0] + x[2,_3,_0]
   + 1.414213562373095 x[2,_4,_0] + x[2,_5,_0]
   + 1.414213562373095 x[2,_6,_0] + 1.414213562373095 x[3,_0,_0]
   + 2 x[3,_1,_0] + x[3,_2,_0] + 2.23606797749979 x[3,_4,_0]
   + 1.414213562373095 x[3,_5,_0] + x[3,_6,_0]
   + 2.23606797749979 x[4,_0,_0] + x[4,_1,_0]
   + 1.414213562373095 x[4,_2,_0] + 2.23606797749979 x[4,_3,_0]
   + x[4,_5,_0] + 2 x[4,_6,_0] + 2 x[5,_0,_0]
   + 1.414213562373095 x[5,_1,_0] + x[5,_2,_0]
   + 1.414213562373095 x[5,_3,_0] + x[5,_4,_0] + x[5,_6,_0]
   + 2.23606797749979 x[6,_0,_0] + 2.23606797749979 x[6,_1,_0]
   + 1.414213562373095 x[6,_2,_0] + x[6,_3,_0] + 2 x[6,_4,_0] + x[6,_5,_0]
Subject To
 R0: x[0,_1,_0] + x[0,_2,_0] + x[0,_3,_0] + x[0,_4,_0] + x[0,_5,_0]
   + x[0,_6,_0] = 1
 R1: x[1,_0,_0] + x[2,_0,_0] + x[3,_0,_0] + x[4,_0,_0] + x[5,_0,_0]
   + x[6,_0,_0] = 1
 R2: x[1,_0,_0] + x[2,_0,_0] + x[3,_0,_0] + x[4,_0,_0] + x[5,_0,_0]
   + x[6,_0,_0] = 1
 R3: x[0,_1,_0] + x[2,_1,_0] + x[3,_1,_0] + x[4,_1,_0] + x[5,_1,_0]
   + x[6,_1,_0] = 1
 R4: x[0,_2,_0] + x[1,_2,_0] + x[3,_2,_0] + x[4,_2,_0] + x[5,_2,_0]
   + x[6,_2,_0] = 1
 R5: x[0,_3,_0] + x[1,_3,_0] + x[2,_3,_0] + x[4,_3,_0] + x[5,_3,_0]
   + x[6,_3,_0] = 1
 R6: x[0,_4,_0] + x[1,_4,_0] + x[2,_4,_0] + x[3,_4,_0] + x[5,_4,_0]
   + x[6,_4,_0] = 1
 R7: x[0,_5,_0] + x[1,_5,_0] + x[2,_5,_0] + x[3,_5,_0] + x[4,_5,_0]
   + x[6,_5,_0] = 1
 R8: x[0,_6,_0] + x[1,_6,_0] + x[2,_6,_0] + x[3,_6,_0] + x[4,_6,_0]
   + x[5,_6,_0] = 1
 R9: x[0,_1,_0] + x[0,_2,_0] + x[0,_3,_0] + x[0,_4,_0] + x[0,_5,_0]
   + x[0,_6,_0] - x[1,_0,_0] - x[2,_0,_0] - x[3,_0,_0] - x[4,_0,_0]
   - x[5,_0,_0] - x[6,_0,_0] = 0
 R10: - x[0,_1,_0] + x[1,_0,_0] + x[1,_2,_0] + x[1,_3,_0] + x[1,_4,_0]
   + x[1,_5,_0] + x[1,_6,_0] - x[2,_1,_0] - x[3,_1,_0] - x[4,_1,_0]
   - x[5,_1,_0] - x[6,_1,_0] = 0
 R11: - x[0,_2,_0] - x[1,_2,_0] + x[2,_0,_0] + x[2,_1,_0] + x[2,_3,_0]
   + x[2,_4,_0] + x[2,_5,_0] + x[2,_6,_0] - x[3,_2,_0] - x[4,_2,_0]
   - x[5,_2,_0] - x[6,_2,_0] = 0
 R12: - x[0,_3,_0] - x[1,_3,_0] - x[2,_3,_0] + x[3,_0,_0] + x[3,_1,_0]
   + x[3,_2,_0] + x[3,_4,_0] + x[3,_5,_0] + x[3,_6,_0] - x[4,_3,_0]
   - x[5,_3,_0] - x[6,_3,_0] = 0
 R13: - x[0,_4,_0] - x[1,_4,_0] - x[2,_4,_0] - x[3,_4,_0] + x[4,_0,_0]
   + x[4,_1,_0] + x[4,_2,_0] + x[4,_3,_0] + x[4,_5,_0] + x[4,_6,_0]
   - x[5,_4,_0] - x[6,_4,_0] = 0
 R14: - x[0,_5,_0] - x[1,_5,_0] - x[2,_5,_0] - x[3,_5,_0] - x[4,_5,_0]
   + x[5,_0,_0] + x[5,_1,_0] + x[5,_2,_0] + x[5,_3,_0] + x[5,_4,_0]
   + x[5,_6,_0] - x[6,_5,_0] = 0
 R15: - x[0,_6,_0] - x[1,_6,_0] - x[2,_6,_0] - x[3,_6,_0] - x[4,_6,_0]
   - x[5,_6,_0] + x[6,_0,_0] + x[6,_1,_0] + x[6,_2,_0] + x[6,_3,_0]
   + x[6,_4,_0] + x[6,_5,_0] = 0
Bounds
Binaries
 x[0,_1,_0] x[0,_2,_0] x[0,_3,_0] x[0,_4,_0] x[0,_5,_0] x[0,_6,_0]
 x[1,_0,_0] x[1,_2,_0] x[1,_3,_0] x[1,_4,_0] x[1,_5,_0] x[1,_6,_0]
 x[2,_0,_0] x[2,_1,_0] x[2,_3,_0] x[2,_4,_0] x[2,_5,_0] x[2,_6,_0]
 x[3,_0,_0] x[3,_1,_0] x[3,_2,_0] x[3,_4,_0] x[3,_5,_0] x[3,_6,_0]
 x[4,_0,_0] x[4,_1,_0] x[4,_2,_0] x[4,_3,_0] x[4,_5,_0] x[4,_6,_0]
 x[5,_0,_0] x[5,_1,_0] x[5,_2,_0] x[5,_3,_0] x[5,_4,_0] x[5,_6,_0]
 x[6,_0,_0] x[6,_1,_0] x[6,_2,_0] x[6,_3,_0] x[6,_4,_0] x[6,_5,_0]
End
